30 61
29
11 5 2 56
11 4 7 29
10 19 11 10
7 10 12 0
9 16 21 14
9 9 2 47
5 8 7 33
7 25 0 16
7 13 0 0
7 12 23 2
7 7 23 30
5 7 19 51
6 24 24 37
6 18 12 33
11 6 1 41
6 10 13 51
5 6 7 0
5 21 18 30
4 23 7 6
4 10 19 0
2 4 21 10
2 4 11 51
1 4 0 43
6 3 1 13
5 3 19 58
2 12 0 49
7 2 23 0
2 1 18 29
1 4 23 37

301
True
NOT_OPTIMAL